SDVRP instances/p02/p02_7090_tsplib0_splitx10_0.vrp
NAME:.\SDVRP_splitx10_
BEST_KNOWN: 0
COMMENT: 0
DIMENSION: 540
CAPACITY: 1400
EDGE_WEIGHT_FORMAT: FUNCTION
EDGE_WEIGHT_TYPE: EXACT_2D
NODE_COORD_SECTION
1 0.00000 0.00000
2 -18 -18
3 -18 -18
4 -18 -18
5 -18 -18
6 -18 -18
7 -18 -18
8 -18 -18
9 -4 -14
10 -4 -14
11 -4 -14
12 -4 -14
13 -4 -14
14 -4 -14
15 -4 -14
16 -4 -14
17 -19 5
18 -19 5
19 -19 5
20 -19 5
21 -19 5
22 -19 5
23 -19 5
24 -19 5
25 -19 5
26 5 -5
27 5 -5
28 5 -5
29 5 -5
30 5 -5
31 15 -20
32 15 -20
33 15 -20
34 15 -20
35 15 -20
36 15 -20
37 15 -20
38 15 -20
39 -7 -6
40 -7 -6
41 -7 -6
42 -7 -6
43 -7 -6
44 -7 -6
45 -7 -6
46 -7 -6
47 10 10
48 10 10
49 10 10
50 10 10
51 10 10
52 10 10
53 10 10
54 10 10
55 10 10
56 10 10
57 15 5
58 15 5
59 15 5
60 15 5
61 15 5
62 15 5
63 15 5
64 -14 19
65 -14 19
66 -14 19
67 -14 19
68 -14 19
69 -14 19
70 -14 19
71 -14 19
72 0 26
73 0 26
74 0 26
75 0 26
76 15 25
77 15 25
78 15 25
79 15 25
80 15 25
81 15 25
82 -5 11
83 -5 11
84 -5 11
85 -5 11
86 -5 11
87 -5 11
88 -5 11
89 -5 11
90 22 -5
91 22 -5
92 22 -5
93 22 -5
94 22 -5
95 22 -5
96 22 -5
97 22 -5
98 22 -5
99 22 -5
100 22 17
101 22 17
102 22 17
103 22 17
104 22 -16
105 22 -16
106 22 -16
107 22 -16
108 22 -16
109 22 -16
110 22 -16
111 22 -16
112 -19 -4
113 -19 -4
114 -19 -4
115 -19 -4
116 -19 -4
117 -19 -4
118 -7 4
119 -7 4
120 -7 4
121 -7 4
122 -7 4
123 -7 4
124 -31 16
125 -31 16
126 -31 16
127 -31 16
128 22 8
129 22 8
130 22 8
131 22 8
132 22 8
133 22 8
134 22 8
135 26 -26
136 26 -26
137 26 -26
138 26 -26
139 26 -26
140 4 -27
141 4 -27
142 4 -27
143 4 -27
144 4 -27
145 4 -27
146 -14 -27
147 -14 -27
148 -14 -27
149 -14 -27
150 -14 -27
151 -14 -27
152 -14 -27
153 -29 -12
154 -29 -12
155 -29 -12
156 -29 -12
157 -29 -12
158 -29 -12
159 -29 -12
160 -33 3
161 -33 3
162 -33 3
163 -33 3
164 -33 3
165 -33 3
166 -23 24
167 -23 24
168 -23 24
169 -23 24
170 -23 24
171 -23 24
172 1 6
173 1 6
174 1 6
175 1 6
176 1 6
177 1 6
178 1 6
179 1 6
180 1 6
181 15 -6
182 15 -6
183 15 -6
184 15 -6
185 -5 -24
186 -5 -24
187 -5 -24
188 -5 -24
189 -5 -24
190 12 -14
191 12 -14
192 12 -14
193 12 -14
194 12 -14
195 12 -14
196 12 -14
197 3 -14
198 3 -14
199 3 -14
200 3 -14
201 3 -14
202 3 -14
203 -9 36
204 -9 36
205 -9 36
206 -9 36
207 -9 36
208 -9 36
209 -9 36
210 -18 13
211 -18 13
212 -18 13
213 -18 13
214 -18 13
215 -18 13
216 -14 -11
217 -14 -11
218 -14 -11
219 -14 -11
220 -14 -11
221 -14 -11
222 -14 -11
223 10 0
224 10 0
225 10 0
226 10 0
227 10 0
228 10 0
229 10 0
230 10 0
231 10 0
232 15 10
233 15 10
234 15 10
235 15 10
236 15 10
237 15 10
238 15 10
239 14 -30
240 14 -30
241 14 -30
242 14 -30
243 14 -30
244 14 -30
245 14 -30
246 14 -30
247 14 -30
248 14 -30
249 20 -25
250 20 -25
251 20 -25
252 20 -25
253 20 -25
254 7 26
255 7 26
256 7 26
257 7 26
258 7 26
259 7 26
260 7 26
261 7 26
262 7 26
263 7 26
264 -10 20
265 -10 20
266 -10 20
267 -10 20
268 -10 20
269 -10 20
270 -10 20
271 -10 20
272 -10 20
273 -10 20
274 -10 10
275 -10 10
276 -10 10
277 -10 10
278 -10 10
279 -10 10
280 -10 10
281 -28 -23
282 -28 -23
283 -28 -23
284 -28 -23
285 -28 -23
286 -28 -23
287 -28 -23
288 -28 -23
289 -25 -26
290 -25 -26
291 -25 -26
292 -25 -26
293 -25 -26
294 -24 -21
295 -24 -21
296 -24 -21
297 -24 -21
298 -24 -21
299 -24 -21
300 -24 -21
301 -19 8
302 -19 8
303 -19 8
304 -19 8
305 -19 8
306 -19 8
307 -19 8
308 10 -10
309 10 -10
310 10 -10
311 10 -10
312 10 -10
313 10 -10
314 10 -10
315 10 -10
316 11 2
317 11 2
318 11 2
319 11 2
320 11 2
321 10 -25
322 10 -25
323 10 -25
324 10 -25
325 10 -25
326 10 -25
327 10 -25
328 10 -25
329 10 -25
330 10 -25
331 8 -19
332 8 -19
333 8 -19
334 8 -19
335 8 -19
336 8 -19
337 8 -19
338 8 -19
339 8 -19
340 -28 -2
341 -28 -2
342 -28 -2
343 -28 -2
344 -28 -2
345 -28 -2
346 -28 -2
347 -25 16
348 -25 16
349 -25 16
350 -25 16
351 -25 16
352 -25 16
353 -25 16
354 -11 -1
355 -11 -1
356 -11 -1
357 -11 -1
358 -11 -1
359 -11 -1
360 -11 -1
361 14 -2
362 14 -2
363 14 -2
364 14 -2
365 14 -2
366 14 -2
367 14 -2
368 15 17
369 15 17
370 15 17
371 15 17
372 15 17
373 15 17
374 27 1
375 27 1
376 27 1
377 27 1
378 27 1
379 27 1
380 27 1
381 27 1
382 -30 30
383 -30 30
384 -30 30
385 -30 30
386 -30 30
387 -30 30
388 -30 30
389 -30 30
390 -30 30
391 -34 -15
392 -34 -15
393 -34 -15
394 -34 -15
395 -34 -15
396 -34 -15
397 -34 -15
398 -34 -15
399 -34 -15
400 25 -13
401 25 -13
402 25 -13
403 25 -13
404 25 -13
405 25 -13
406 0 20
407 0 20
408 0 20
409 0 20
410 0 20
411 0 20
412 0 20
413 0 20
414 30 24
415 30 24
416 30 24
417 30 24
418 30 24
419 30 24
420 30 24
421 30 24
422 24 -36
423 24 -36
424 24 -36
425 24 -36
426 24 -36
427 24 -36
428 24 -36
429 -4 -34
430 -4 -34
431 -4 -34
432 -4 -34
433 -4 -34
434 -4 -34
435 -4 -34
436 -4 -34
437 -10 -20
438 -10 -20
439 -10 -20
440 -10 -20
441 -10 -20
442 -20 -10
443 -20 -10
444 -20 -10
445 -20 -10
446 -20 -10
447 -20 -10
448 -25 -35
449 -25 -35
450 -25 -35
451 -25 -35
452 -25 -35
453 -25 -35
454 10 30
455 10 30
456 10 30
457 10 30
458 10 30
459 10 30
460 10 30
461 17 32
462 17 32
463 17 32
464 17 32
465 17 32
466 17 32
467 17 32
468 17 32
469 17 32
470 17 32
471 5 2
472 5 2
473 5 2
474 5 2
475 5 2
476 5 2
477 5 2
478 -2 -7
479 -2 -7
480 -2 -7
481 -2 -7
482 -2 -7
483 -2 -7
484 10 -36
485 10 -36
486 10 -36
487 10 -36
488 10 -36
489 10 -36
490 10 -36
491 10 -36
492 10 -36
493 10 -36
494 26 -32
495 26 -32
496 26 -32
497 26 -32
498 26 -32
499 26 -32
500 26 -32
501 26 -32
502 19 -35
503 19 -35
504 19 -35
505 19 -35
506 19 -35
507 19 -35
508 19 -35
509 19 -35
510 19 -35
511 -5 20
512 -5 20
513 -5 20
514 -5 20
515 -5 20
516 -5 20
517 -5 20
518 -5 20
519 -13 -16
520 -13 -16
521 -13 -16
522 -13 -16
523 -13 -16
524 -13 -16
525 -13 -16
526 0 -20
527 0 -20
528 0 -20
529 0 -20
530 0 -20
531 0 -20
532 0 -20
533 0 -20
534 0 -20
535 0 -20
536 0 -3
537 0 -3
538 0 -3
539 0 -3
540 0 -3
DEMAND_SECTION
1 0
2 280
3 280
4 280
5 280
6 70
7 14
8 6
9 280
10 280
11 280
12 140
13 70
14 14
15 14
16 12
17 280
18 280
19 280
20 140
21 14
22 14
23 14
24 14
25 4
26 280
27 280
28 280
29 280
30 10
31 280
32 280
33 280
34 280
35 70
36 14
37 14
38 12
39 280
40 280
41 280
42 280
43 70
44 14
45 14
46 2
47 280
48 280
49 280
50 140
51 70
52 14
53 14
54 14
55 14
56 4
57 280
58 280
59 280
60 140
61 14
62 14
63 2
64 280
65 280
66 280
67 140
68 14
69 14
70 14
71 8
72 280
73 280
74 280
75 140
76 280
77 280
78 280
79 280
80 70
81 10
82 280
83 280
84 280
85 140
86 70
87 14
88 14
89 12
90 280
91 280
92 280
93 140
94 70
95 14
96 14
97 14
98 14
99 4
100 280
101 280
102 280
103 280
104 280
105 280
106 280
107 280
108 14
109 14
110 14
111 8
112 280
113 280
114 280
115 140
116 70
117 10
118 280
119 280
120 280
121 140
122 14
123 6
124 280
125 280
126 280
127 280
128 280
129 280
130 280
131 280
132 70
133 14
134 6
135 280
136 280
137 280
138 280
139 10
140 280
141 280
142 280
143 140
144 14
145 6
146 280
147 280
148 280
149 280
150 14
151 14
152 2
153 280
154 280
155 280
156 280
157 14
158 14
159 12
160 280
161 280
162 280
163 280
164 14
165 6
166 280
167 280
168 280
169 280
170 70
171 10
172 280
173 280
174 280
175 280
176 14
177 14
178 14
179 14
180 4
181 280
182 280
183 280
184 140
185 280
186 280
187 280
188 280
189 70
190 280
191 280
192 280
193 140
194 14
195 14
196 12
197 280
198 280
199 280
200 140
201 14
202 6
203 280
204 280
205 280
206 280
207 70
208 14
209 6
210 280
211 280
212 280
213 280
214 70
215 10
216 280
217 280
218 280
219 280
220 70
221 14
222 6
223 280
224 280
225 280
226 140
227 14
228 14
229 14
230 14
231 4
232 280
233 280
234 280
235 280
236 70
237 14
238 6
239 280
240 280
241 280
242 140
243 70
244 14
245 14
246 14
247 14
248 4
249 280
250 280
251 280
252 280
253 70
254 280
255 280
256 280
257 140
258 70
259 14
260 14
261 14
262 14
263 4
264 280
265 280
266 280
267 140
268 70
269 14
270 14
271 14
272 14
273 4
274 280
275 280
276 280
277 280
278 70
279 14
280 6
281 280
282 280
283 280
284 140
285 14
286 14
287 14
288 8
289 280
290 280
291 280
292 140
293 10
294 280
295 280
296 280
297 280
298 14
299 14
300 2
301 280
302 280
303 280
304 280
305 14
306 14
307 12
308 280
309 280
310 280
311 280
312 70
313 14
314 14
315 2
316 280
317 280
318 280
319 140
320 70
321 280
322 280
323 280
324 140
325 70
326 14
327 14
328 14
329 14
330 4
331 280
332 280
333 280
334 140
335 70
336 14
337 14
338 14
339 8
340 280
341 280
342 280
343 280
344 70
345 14
346 6
347 280
348 280
349 280
350 280
351 14
352 14
353 2
354 280
355 280
356 280
357 280
358 14
359 14
360 12
361 280
362 280
363 280
364 280
365 14
366 14
367 12
368 280
369 280
370 280
371 140
372 14
373 6
374 280
375 280
376 280
377 280
378 70
379 14
380 14
381 12
382 280
383 280
384 280
385 280
386 14
387 14
388 14
389 14
390 4
391 280
392 280
393 280
394 280
395 14
396 14
397 14
398 14
399 4
400 280
401 280
402 280
403 140
404 70
405 10
406 280
407 280
408 280
409 280
410 14
411 14
412 14
413 8
414 280
415 280
416 280
417 140
418 70
419 14
420 14
421 12
422 280
423 280
424 280
425 140
426 70
427 14
428 6
429 280
430 280
431 280
432 280
433 70
434 14
435 14
436 2
437 280
438 280
439 280
440 140
441 70
442 280
443 280
444 280
445 140
446 70
447 10
448 280
449 280
450 280
451 140
452 70
453 10
454 280
455 280
456 280
457 140
458 70
459 14
460 6
461 280
462 280
463 280
464 140
465 70
466 14
467 14
468 14
469 14
470 4
471 280
472 280
473 280
474 280
475 70
476 14
477 6
478 280
479 280
480 280
481 140
482 14
483 6
484 280
485 280
486 280
487 280
488 70
489 14
490 14
491 14
492 14
493 4
494 280
495 280
496 280
497 280
498 70
499 14
500 14
501 2
502 280
503 280
504 280
505 280
506 70
507 14
508 14
509 14
510 8
511 280
512 280
513 280
514 280
515 70
516 14
517 14
518 12
519 280
520 280
521 280
522 280
523 70
524 14
525 6
526 280
527 280
528 280
529 280
530 70
531 14
532 14
533 14
534 14
535 4
536 280
537 280
538 280
539 140
540 10
DEPOT_SECTION
1
-1
EOF