SDVRP instances/p02/p02_7090_tsplib0_splitx10_0.sol
539 -4 3 1 2 519 -5 7 6 291 289 290 292 288 294 299 -9 437 439 438 436 440 -12 10 15 532 533 144 139 142 143 141 140 -13 11 8 14 520 523 518 521 522 524 -21 20 16 18 22 23 19 24 17 305 304 306 301 -26 27 28 25 536 -29 309 312 308 313 310 307 311 314 -34 37 35 36 31 30 33 32 195 192 -44 39 41 40 43 42 38 45 -52 46 51 50 54 371 368 370 367 372 369 -53 48 49 47 55 235 237 232 236 234 -57 58 59 62 56 61 60 319 315 -70 69 68 67 64 65 63 66 268 264 269 271 270 -73 74 72 71 258 257 255 261 262 259 260 -78 462 461 463 467 465 464 466 469 468 460 -80 75 76 79 77 254 256 -81 87 88 83 267 272 263 265 266 -82 275 274 273 276 -85 203 208 206 205 202 204 207 -86 84 513 517 510 515 511 512 516 514 -89 91 90 97 92 98 96 95 93 94 182 -99 415 414 416 420 417 418 413 419 -102 100 101 231 233 -107 110 105 103 109 104 108 106 403 404 402 -111 342 339 340 341 -114 343 344 345 162 159 161 160 163 164 -115 116 113 112 443 446 442 444 -120 118 117 119 122 121 -125 126 123 124 302 -127 130 128 131 133 129 132 318 -134 136 135 137 248 -138 494 499 495 493 497 496 498 500 252 -148 146 145 293 295 -151 149 147 150 451 452 450 447 448 449 -154 155 152 153 441 -156 157 158 391 397 395 396 393 394 392 390 398 445 -168 166 167 165 210 -169 170 381 386 385 387 384 388 383 389 382 277 278 279 -176 177 174 173 172 171 175 179 178 -180 181 399 400 401 -183 377 375 378 380 374 379 373 376 -186 185 184 188 187 480 482 481 -193 194 190 189 191 197 -198 201 196 333 337 332 334 335 330 336 338 -199 200 527 526 531 530 528 525 534 529 -209 211 212 303 300 -213 214 346 348 352 349 347 350 351 -220 219 218 215 216 217 221 -224 223 222 317 316 -227 226 225 229 228 230 363 362 366 360 361 364 365 -238 245 241 243 505 507 502 504 503 509 508 -239 240 251 249 250 -244 242 247 246 492 485 490 487 491 486 489 484 483 488 -253 459 457 453 458 456 455 454 -280 282 286 287 283 284 281 285 298 297 296 -329 328 325 326 324 323 320 322 321 327 331 -354 355 353 357 356 358 359 -407 406 410 409 411 412 405 408 -425 424 421 423 422 427 426 506 501 -433 434 432 430 431 428 429 435 539 538 -471 470 473 474 472 476 475 -479 477 478 535 537 0 





OBJ=
3294.580
BEST_KNOWN=
0.000